<number of tasks>
50

<cycle time>
1000

<order strength>
0.596


<task times>
1 442
2 67
3 148
4 546
5 111
6 284
7 340
8 226
9 368
10 99
11 209
12 321
13 340
14 199
15 375
16 136
17 77
18 154
19 54
20 193
21 23
22 56
23 122
24 534
25 400
26 163
27 215
28 28
29 61
30 556
31 147
32 347
33 124
34 47
35 49
36 222
37 132
38 64
39 29
40 78
41 506
42 41
43 115
44 311
45 123
46 500
47 239
48 129
49 525
50 165

<precedence relations>
1,8
1,31
2,6
2,9
3,6
3,7
3,31
4,6
4,7
4,8
5,10
5,11
6,14
6,45
7,14
7,26
8,14
8,43
9,13
9,14
9,15
9,22
10,12
10,15
11,12
11,20
12,17
12,23
12,28
13,18
14,16
14,18
15,19
16,25
16,28
17,21
17,22
18,20
18,41
19,20
19,21
19,23
20,27
20,28
20,29
21,24
21,25
22,24
22,25
22,26
23,25
24,29
24,30
24,31
24,33
25,47
26,36
26,42
27,30
27,44
28,32
28,33
28,35
29,35
29,38
30,37
30,38
30,42
30,49
31,36
31,39
32,34
32,50
33,34
33,37
34,42
35,39
36,40
36,41
36,43
37,39
39,47
40,45
41,44
41,47
43,45
44,46
44,48
44,49
45,46
45,47
45,50

<end>
